
Gurobi 7.5.2 (linux64) logging started Sat Jul  7 16:59:09 2018

Changed value of parameter LogFile to result/ilp/simNo_10-n_100-m_40-s_4-minVAF_0.05-cov_10000-k_1-fn_0.15-fp_0.0001-na_0.15.ILP.gurobiSolverLog
   Prev: gurobi.log  Default: 
Changed value of parameter TimeLimit to 86400.0
   Prev: 1e+100  Min: 0.0  Max: 1e+100  Default: 1e+100
Optimize a model with 639293 rows, 10765 columns and 1940420 nonzeros
Variable types: 0 continuous, 10765 integer (10765 binary)
Coefficient statistics:
  Matrix range     [1e-04, 4e+00]
  Objective range  [1e+00, 1e+01]
  Bounds range     [1e+00, 1e+00]
  RHS range        [3e-01, 2e+00]
Found heuristic solution: objective -15445.57310
Presolve removed 120960 rows and 904 columns (presolve time = 6s) ...
Presolve removed 123504 rows and 904 columns (presolve time = 11s) ...
Presolve removed 123504 rows and 904 columns (presolve time = 15s) ...
Presolve removed 123963 rows and 904 columns (presolve time = 22s) ...
Presolve removed 169863 rows and 1363 columns (presolve time = 25s) ...
Presolve removed 169863 rows and 1363 columns (presolve time = 30s) ...
Presolve removed 169863 rows and 1363 columns
Presolve time: 30.38s
Presolved: 469430 rows, 9402 columns, 1415236 nonzeros
Variable types: 0 continuous, 9402 integer (9402 binary)
Presolved: 9402 rows, 478832 columns, 1424638 nonzeros

Presolve removed 9402 rows and 478832 columns

Root simplex log...

Iteration    Objective       Primal Inf.    Dual Inf.      Time
       0    1.1112650e+01   0.000000e+00   7.840800e+04     37s
   15215   -2.7656623e+02   0.000000e+00   9.568690e+04     40s
   29363   -3.4692235e+02   0.000000e+00   1.838312e+04     45s
   33501   -3.5947224e+02   0.000000e+00   0.000000e+00     47s
   33501   -3.5947224e+02   0.000000e+00   0.000000e+00     49s

Root relaxation: objective -3.594722e+02, 33501 iterations, 15.82 seconds
Total elapsed time = 50.29s
Total elapsed time = 116.04s
Total elapsed time = 169.01s
Total elapsed time = 226.39s

    Nodes    |    Current Node    |     Objective Bounds      |     Work
 Expl Unexpl |  Obj  Depth IntInf | Incumbent    BestBd   Gap | It/Node Time

     0     0 -359.47224    0 1177 -15445.573 -359.47224  97.7%     -  243s
H    0     0                    -777.9306057 -359.47224  53.8%     -  248s
H    0     0                    -471.7228086 -359.47224  23.8%     -  250s
H    0     0                    -437.7015361 -359.47224  17.9%     -  256s
     0     0 -363.05342    0 1187 -437.70154 -363.05342  17.1%     -  290s
     0     0 -366.32795    0 1196 -437.70154 -366.32795  16.3%     -  867s
     0     0 -366.71796    0 1190 -437.70154 -366.71796  16.2%     -  897s
     0     0 -366.79202    0 1189 -437.70154 -366.79202  16.2%     - 1040s
     0     0 -366.82096    0 1188 -437.70154 -366.82096  16.2%     - 1062s
     0     0 -366.83647    0 1196 -437.70154 -366.83647  16.2%     - 1118s
     0     0 -368.11842    0 1152 -437.70154 -368.11842  15.9%     - 1297s
     0     0 -368.34009    0 1161 -437.70154 -368.34009  15.8%     - 1355s
     0     0 -368.57896    0 1168 -437.70154 -368.57896  15.8%     - 1453s
     0     0 -368.64068    0 1314 -437.70154 -368.64068  15.8%     - 1517s
     0     0 -368.65372    0 1314 -437.70154 -368.65372  15.8%     - 1534s
     0     0 -371.76509    0 1319 -437.70154 -371.76509  15.1%     - 5275s
     0     0 -371.76509    0 1331 -437.70154 -371.76509  15.1%     - 5301s
     0     0 -373.98162    0 1287 -437.70154 -373.98162  14.6%     - 7281s
     0     0 -373.98162    0 1283 -437.70154 -373.98162  14.6%     - 7291s
     0     0 -376.11221    0 1275 -437.70154 -376.11221  14.1%     - 8410s
     0     0 -376.11221    0 1268 -437.70154 -376.11221  14.1%     - 8442s
     0     0 -377.63003    0 1482 -437.70154 -377.63003  13.7%     - 14985s
     0     0 -377.66505    0 1551 -437.70154 -377.66505  13.7%     - 15009s
     0     0 -377.66903    0 1550 -437.70154 -377.66903  13.7%     - 15021s
     0     0 -377.66903    0 1549 -437.70154 -377.66903  13.7%     - 15025s
     0     0 -380.42218    0 1336 -437.70154 -380.42218  13.1%     - 23049s
H    0     0                    -435.9109428 -380.42218  12.7%     - 23061s
     0     0 -380.49916    0 1413 -435.91094 -380.49916  12.7%     - 23084s
     0     0 -380.49916    0 1433 -435.91094 -380.49916  12.7%     - 23091s
     0     0 -382.28975    0 1340 -435.91094 -382.28975  12.3%     - 23457s
     0     0 -382.34485    0 1337 -435.91094 -382.34485  12.3%     - 23535s
     0     0 -382.34485    0 1338 -435.91094 -382.34485  12.3%     - 23539s
     0     0 -383.24015    0 1348 -435.91094 -383.24015  12.1%     - 29576s
     0     0 -383.46397    0 1461 -435.91094 -383.46397  12.0%     - 29813s
     0     0 -383.65582    0 1463 -435.91094 -383.65582  12.0%     - 30195s
     0     0 -383.65582    0 1459 -435.91094 -383.65582  12.0%     - 30201s
     0     0 -385.00171    0 1509 -435.91094 -385.00171  11.7%     - 31438s
     0     0 -385.45531    0 1426 -435.91094 -385.45531  11.6%     - 31716s
     0     0 -385.59933    0 1429 -435.91094 -385.59933  11.5%     - 31955s
     0     0 -385.60579    0 1427 -435.91094 -385.60579  11.5%     - 31967s
     0     0 -385.60579    0 1427 -435.91094 -385.60579  11.5%     - 31970s
     0     0 -386.35933    0 1392 -435.91094 -386.35933  11.4%     - 33443s
     0     0 -386.89450    0 1317 -435.91094 -386.89450  11.2%     - 35321s
     0     0 -386.97676    0 1400 -435.91094 -386.97676  11.2%     - 35682s
     0     0 -386.99800    0 1321 -435.91094 -386.99800  11.2%     - 35707s
     0     0 -387.00582    0 1397 -435.91094 -387.00582  11.2%     - 35759s
     0     0 -387.01068    0 1399 -435.91094 -387.01068  11.2%     - 35817s
     0     0 -387.01068    0 1402 -435.91094 -387.01068  11.2%     - 35820s
     0     0 -387.70026    0 1365 -435.91094 -387.70026  11.1%     - 36750s
     0     0 -388.05969    0 1438 -435.91094 -388.05969  11.0%     - 38327s
     0     0 -388.09308    0 1447 -435.91094 -388.09308  11.0%     - 38367s
     0     0 -388.26142    0 1444 -435.91094 -388.26142  10.9%     - 38416s
     0     0 -388.26142    0 1447 -435.91094 -388.26142  10.9%     - 38420s
     0     0 -389.55457    0 1338 -435.91094 -389.55457  10.6%     - 40148s
     0     0 -390.28694    0 1422 -435.91094 -390.28694  10.5%     - 52956s
     0     0 -390.29662    0 1341 -435.91094 -390.29662  10.5%     - 52970s
     0     0 -390.33752    0 1426 -435.91094 -390.33752  10.5%     - 52995s
     0     0 -390.33752    0 1426 -435.91094 -390.33752  10.5%     - 52999s
     0     0 -391.19183    0 1434 -435.91094 -391.19183  10.3%     - 53916s
     0     0 -391.61436    0 1439 -435.91094 -391.61436  10.2%     - 58945s
     0     0 -391.84704    0 1354 -435.91094 -391.84704  10.1%     - 59081s
     0     0 -391.85332    0 1349 -435.91094 -391.85332  10.1%     - 59096s
     0     0 -391.87844    0 1436 -435.91094 -391.87844  10.1%     - 59411s
     0     0 -391.87905    0 1436 -435.91094 -391.87905  10.1%     - 59441s
     0     0 -393.71785    0 1401 -435.91094 -393.71785  9.68%     - 68537s
     0     0 -393.96491    0 1453 -435.91094 -393.96491  9.62%     - 68739s
     0     0 -393.97538    0 1596 -435.91094 -393.97538  9.62%     - 68756s
     0     0 -393.97538    0 1597 -435.91094 -393.97538  9.62%     - 68761s
     0     0 -394.18477    0 1480 -435.91094 -394.18477  9.57%     - 68794s
     0     0 -394.28326    0 1441 -435.91094 -394.28326  9.55%     - 68885s
     0     0 -394.28326    0 1440 -435.91094 -394.28326  9.55%     - 68893s
     0     0 -395.59193    0 1443 -435.91094 -395.59193  9.25%     - 72808s
     0     0 -395.70831    0 1590 -435.91094 -395.70831  9.22%     - 72937s
     0     0 -395.71972    0 1582 -435.91094 -395.71972  9.22%     - 72952s
     0     0 -395.71972    0 1581 -435.91094 -395.71972  9.22%     - 72958s
     0     0 -395.90044    0 1590 -435.91094 -395.90044  9.18%     - 78517s
     0     0 -396.48557    0 1473 -435.91094 -396.48557  9.04%     - 79104s
     0     0 -396.48557    0 1476 -435.91094 -396.48557  9.04%     - 79114s
     0     0 -396.53141    0 1473 -435.91094 -396.53141  9.03%     - 79177s
     0     0 -396.87891    0 1450 -435.91094 -396.87891  8.95%     - 79935s
     0     0 -396.92785    0 1443 -435.91094 -396.92785  8.94%     - 81446s
     0     0 -397.00246    0 1421 -435.91094 -397.00246  8.93%     - 82149s
     0     0 -397.00706    0 1421 -435.91094 -397.00706  8.92%     - 82208s
     0     0 -397.00706    0 1424 -435.91094 -397.00706  8.92%     - 82213s
     0     0 -397.02971    0 1400 -435.91094 -397.02971  8.92%     - 82283s
     0     0 -397.12398    0 1446 -435.91094 -397.12398  8.90%     - 82500s
     0     0 -397.15883    0 1454 -435.91094 -397.15883  8.89%     - 82544s
     0     0 -397.16426    0 1450 -435.91094 -397.16426  8.89%     - 82587s
     0     0 -397.16740    0 1455 -435.91094 -397.16740  8.89%     - 82599s
     0     0 -397.39234    0 1450 -435.91094 -397.39234  8.84%     - 82627s
     0     0 -397.42771    0 1457 -435.91094 -397.42771  8.83%     - 82665s
     0     0 -397.47035    0 1457 -435.91094 -397.47035  8.82%     - 82692s
     0     0 -397.47035    0 1449 -435.91094 -397.47035  8.82%     - 82699s
     0     0 -397.86229    0 1448 -435.91094 -397.86229  8.73%     - 83743s
     0     0 -397.90850    0 1456 -435.91094 -397.90850  8.72%     - 83818s
     0     0 -397.91518    0 1453 -435.91094 -397.91518  8.72%     - 83849s
     0     0 -397.92242    0 1459 -435.91094 -397.92242  8.71%     - 83888s
     0     0 -397.92242    0 1461 -435.91094 -397.92242  8.71%     - 83891s
     0     0 -398.08350    0 1458 -435.91094 -398.08350  8.68%     - 84071s
     0     0 -398.16052    0 1446 -435.91094 -398.16052  8.66%     - 84184s
     0     0 -398.25536    0 1451 -435.91094 -398.25536  8.64%     - 84276s
     0     0 -398.25831    0 1444 -435.91094 -398.25831  8.64%     - 84289s
     0     0 -398.39790    0 1327 -435.91094 -398.39790  8.61%     - 84449s
H    0     0                    -431.6527718 -398.39790  7.70%     - 84492s
     0     0 -398.43414    0 1324 -431.65277 -398.43414  7.70%     - 84563s
     0     0 -398.47800    0 1320 -431.65277 -398.47800  7.69%     - 84586s
     0     0 -398.57121    0 1328 -431.65277 -398.57121  7.66%     - 84815s
     0     0 -398.57510    0 1326 -431.65277 -398.57510  7.66%     - 84841s
     0     0 -398.80084    0 1327 -431.65277 -398.80084  7.61%     - 84961s
     0     0 -398.85165    0 1323 -431.65277 -398.85165  7.60%     - 85018s
     0     0 -398.86020    0 1321 -431.65277 -398.86020  7.60%     - 85029s
     0     0 -398.88268    0 1327 -431.65277 -398.88268  7.59%     - 85043s
     0     0 -398.90166    0 1326 -431.65277 -398.90166  7.59%     - 85068s
     0     0 -398.90608    0 1328 -431.65277 -398.90608  7.59%     - 85077s
     0     0 -398.90608    0 1328 -431.65277 -398.90608  7.59%     - 85079s
     0     0          -    0      -431.65277 -398.90608  7.59%     - 86400s

Cutting planes:
  MIR: 4
  Zero half: 242

Explored 1 nodes (2380137 simplex iterations) in 86400.16 seconds
Thread count was 1 (of 80 available processors)

Solution count 6: -431.653 -435.911 -437.702 ... -15445.6

Time limit reached
Best objective -4.316527718414e+02, best bound -3.989060811242e+02, gap 7.5864%
